p cnf 240 560
1 2 3 0
4 5 6 0
7 8 9 0
10 11 12 0
13 14 15 0
16 17 18 0
19 20 21 0
22 23 24 0
25 26 27 0
28 29 30 0
31 32 33 0
34 35 36 0
37 38 39 0
40 41 42 0
43 44 45 0
46 47 48 0
49 50 51 0
52 53 54 0
55 56 57 0
58 59 60 0
61 62 63 0
64 65 66 0
67 68 69 0
70 71 72 0
73 74 75 0
76 77 78 0
79 80 81 0
82 83 84 0
85 86 87 0
88 89 90 0
91 92 93 0
94 95 96 0
97 98 99 0
100 101 102 0
103 104 105 0
106 107 108 0
109 110 111 0
112 113 114 0
115 116 117 0
118 119 120 0
121 122 123 0
124 125 126 0
127 128 129 0
130 131 132 0
133 134 135 0
136 137 138 0
139 140 141 0
142 143 144 0
145 146 147 0
148 149 150 0
151 152 153 0
154 155 156 0
157 158 159 0
160 161 162 0
163 164 165 0
166 167 168 0
169 170 171 0
172 173 174 0
175 176 177 0
178 179 180 0
181 182 183 0
184 185 186 0
187 188 189 0
190 191 192 0
193 194 195 0
196 197 198 0
199 200 201 0
202 203 204 0
205 206 207 0
208 209 210 0
211 212 213 0
214 215 216 0
217 218 219 0
220 221 222 0
223 224 225 0
226 227 228 0
229 230 231 0
232 233 234 0
235 236 237 0
238 239 240 0
-1 -2 0
-1 -3 0
-2 -3 0
-4 -5 0
-4 -6 0
-5 -6 0
-7 -8 0
-7 -9 0
-8 -9 0
-10 -11 0
-10 -12 0
-11 -12 0
-13 -14 0
-13 -15 0
-14 -15 0
-16 -17 0
-16 -18 0
-17 -18 0
-19 -20 0
-19 -21 0
-20 -21 0
-22 -23 0
-22 -24 0
-23 -24 0
-25 -26 0
-25 -27 0
-26 -27 0
-28 -29 0
-28 -30 0
-29 -30 0
-31 -32 0
-31 -33 0
-32 -33 0
-34 -35 0
-34 -36 0
-35 -36 0
-37 -38 0
-37 -39 0
-38 -39 0
-40 -41 0
-40 -42 0
-41 -42 0
-43 -44 0
-43 -45 0
-44 -45 0
-46 -47 0
-46 -48 0
-47 -48 0
-49 -50 0
-49 -51 0
-50 -51 0
-52 -53 0
-52 -54 0
-53 -54 0
-55 -56 0
-55 -57 0
-56 -57 0
-58 -59 0
-58 -60 0
-59 -60 0
-61 -62 0
-61 -63 0
-62 -63 0
-64 -65 0
-64 -66 0
-65 -66 0
-67 -68 0
-67 -69 0
-68 -69 0
-70 -71 0
-70 -72 0
-71 -72 0
-73 -74 0
-73 -75 0
-74 -75 0
-76 -77 0
-76 -78 0
-77 -78 0
-79 -80 0
-79 -81 0
-80 -81 0
-82 -83 0
-82 -84 0
-83 -84 0
-85 -86 0
-85 -87 0
-86 -87 0
-88 -89 0
-88 -90 0
-89 -90 0
-91 -92 0
-91 -93 0
-92 -93 0
-94 -95 0
-94 -96 0
-95 -96 0
-97 -98 0
-97 -99 0
-98 -99 0
-100 -101 0
-100 -102 0
-101 -102 0
-103 -104 0
-103 -105 0
-104 -105 0
-106 -107 0
-106 -108 0
-107 -108 0
-109 -110 0
-109 -111 0
-110 -111 0
-112 -113 0
-112 -114 0
-113 -114 0
-115 -116 0
-115 -117 0
-116 -117 0
-118 -119 0
-118 -120 0
-119 -120 0
-121 -122 0
-121 -123 0
-122 -123 0
-124 -125 0
-124 -126 0
-125 -126 0
-127 -128 0
-127 -129 0
-128 -129 0
-130 -131 0
-130 -132 0
-131 -132 0
-133 -134 0
-133 -135 0
-134 -135 0
-136 -137 0
-136 -138 0
-137 -138 0
-139 -140 0
-139 -141 0
-140 -141 0
-142 -143 0
-142 -144 0
-143 -144 0
-145 -146 0
-145 -147 0
-146 -147 0
-148 -149 0
-148 -150 0
-149 -150 0
-151 -152 0
-151 -153 0
-152 -153 0
-154 -155 0
-154 -156 0
-155 -156 0
-157 -158 0
-157 -159 0
-158 -159 0
-160 -161 0
-160 -162 0
-161 -162 0
-163 -164 0
-163 -165 0
-164 -165 0
-166 -167 0
-166 -168 0
-167 -168 0
-169 -170 0
-169 -171 0
-170 -171 0
-172 -173 0
-172 -174 0
-173 -174 0
-175 -176 0
-175 -177 0
-176 -177 0
-178 -179 0
-178 -180 0
-179 -180 0
-181 -182 0
-181 -183 0
-182 -183 0
-184 -185 0
-184 -186 0
-185 -186 0
-187 -188 0
-187 -189 0
-188 -189 0
-190 -191 0
-190 -192 0
-191 -192 0
-193 -194 0
-193 -195 0
-194 -195 0
-196 -197 0
-196 -198 0
-197 -198 0
-199 -200 0
-199 -201 0
-200 -201 0
-202 -203 0
-202 -204 0
-203 -204 0
-205 -206 0
-205 -207 0
-206 -207 0
-208 -209 0
-208 -210 0
-209 -210 0
-211 -212 0
-211 -213 0
-212 -213 0
-214 -215 0
-214 -216 0
-215 -216 0
-217 -218 0
-217 -219 0
-218 -219 0
-220 -221 0
-220 -222 0
-221 -222 0
-223 -224 0
-223 -225 0
-224 -225 0
-226 -227 0
-226 -228 0
-227 -228 0
-229 -230 0
-229 -231 0
-230 -231 0
-232 -233 0
-232 -234 0
-233 -234 0
-235 -236 0
-235 -237 0
-236 -237 0
-238 -239 0
-238 -240 0
-239 -240 0
-1 -115 0
-4 -58 0
-7 -82 0
-10 -220 0
-13 -205 0
-16 -31 0
-19 -226 0
-22 -37 0
-25 -145 0
-28 -106 0
-31 -16 0
-34 -232 0
-37 -22 0
-40 -229 0
-43 -175 0
-46 -52 0
-49 -121 0
-52 -46 0
-55 -187 0
-58 -4 0
-61 -238 0
-64 -193 0
-67 -196 0
-70 -169 0
-73 -160 0
-76 -178 0
-79 -151 0
-82 -7 0
-85 -235 0
-88 -154 0
-91 -109 0
-94 -184 0
-97 -223 0
-100 -112 0
-103 -130 0
-106 -28 0
-109 -91 0
-112 -100 0
-115 -1 0
-118 -133 0
-121 -49 0
-124 -211 0
-127 -214 0
-130 -103 0
-133 -118 0
-136 -217 0
-139 -142 0
-142 -139 0
-145 -25 0
-148 -172 0
-151 -79 0
-154 -88 0
-157 -181 0
-160 -73 0
-163 -208 0
-166 -202 0
-169 -70 0
-172 -148 0
-175 -43 0
-178 -76 0
-181 -157 0
-184 -94 0
-187 -55 0
-190 -199 0
-193 -64 0
-196 -67 0
-199 -190 0
-202 -166 0
-205 -13 0
-208 -163 0
-211 -124 0
-214 -127 0
-217 -136 0
-220 -10 0
-223 -97 0
-226 -19 0
-229 -40 0
-232 -34 0
-235 -85 0
-238 -61 0
-2 -116 0
-5 -59 0
-8 -83 0
-11 -221 0
-14 -206 0
-17 -32 0
-20 -227 0
-23 -38 0
-26 -146 0
-29 -107 0
-32 -17 0
-35 -233 0
-38 -23 0
-41 -230 0
-44 -176 0
-47 -53 0
-50 -122 0
-53 -47 0
-56 -188 0
-59 -5 0
-62 -239 0
-65 -194 0
-68 -197 0
-71 -170 0
-74 -161 0
-77 -179 0
-80 -152 0
-83 -8 0
-86 -236 0
-89 -155 0
-92 -110 0
-95 -185 0
-98 -224 0
-101 -113 0
-104 -131 0
-107 -29 0
-110 -92 0
-113 -101 0
-116 -2 0
-119 -134 0
-122 -50 0
-125 -212 0
-128 -215 0
-131 -104 0
-134 -119 0
-137 -218 0
-140 -143 0
-143 -140 0
-146 -26 0
-149 -173 0
-152 -80 0
-155 -89 0
-158 -182 0
-161 -74 0
-164 -209 0
-167 -203 0
-170 -71 0
-173 -149 0
-176 -44 0
-179 -77 0
-182 -158 0
-185 -95 0
-188 -56 0
-191 -200 0
-194 -65 0
-197 -68 0
-200 -191 0
-203 -167 0
-206 -14 0
-209 -164 0
-212 -125 0
-215 -128 0
-218 -137 0
-221 -11 0
-224 -98 0
-227 -20 0
-230 -41 0
-233 -35 0
-236 -86 0
-239 -62 0
-3 -117 0
-6 -60 0
-9 -84 0
-12 -222 0
-15 -207 0
-18 -33 0
-21 -228 0
-24 -39 0
-27 -147 0
-30 -108 0
-33 -18 0
-36 -234 0
-39 -24 0
-42 -231 0
-45 -177 0
-48 -54 0
-51 -123 0
-54 -48 0
-57 -189 0
-60 -6 0
-63 -240 0
-66 -195 0
-69 -198 0
-72 -171 0
-75 -162 0
-78 -180 0
-81 -153 0
-84 -9 0
-87 -237 0
-90 -156 0
-93 -111 0
-96 -186 0
-99 -225 0
-102 -114 0
-105 -132 0
-108 -30 0
-111 -93 0
-114 -102 0
-117 -3 0
-120 -135 0
-123 -51 0
-126 -213 0
-129 -216 0
-132 -105 0
-135 -120 0
-138 -219 0
-141 -144 0
-144 -141 0
-147 -27 0
-150 -174 0
-153 -81 0
-156 -90 0
-159 -183 0
-162 -75 0
-165 -210 0
-168 -204 0
-171 -72 0
-174 -150 0
-177 -45 0
-180 -78 0
-183 -159 0
-186 -96 0
-189 -57 0
-192 -201 0
-195 -66 0
-198 -69 0
-201 -192 0
-204 -168 0
-207 -15 0
-210 -165 0
-213 -126 0
-216 -129 0
-219 -138 0
-222 -12 0
-225 -99 0
-228 -21 0
-231 -42 0
-234 -36 0
-237 -87 0
-240 -63 0
